data/CVRPLIB/Vrp-Set-XML100/instances/XML100_2314_17.vrp
NAME : XML100_2314_17
COMMENT : Generated by Queiroga, Sadykov, Uchoa, and Vidal (2021)
TYPE : CVRP
DIMENSION : 101
EDGE_WEIGHT_TYPE : EUC_2D
CAPACITY : 13
NODE_COORD_SECTION
1    500  500 
2    648  428 
3    829  62  
4    516  751 
5    851  719 
6    767  730 
7    660  325 
8    263  523 
9    879  881 
10   257  642 
11   140  878 
12   786  243 
13   487  823 
14   904  942 
15   77   392 
16   663  199 
17   642  183 
18   862  122 
19   856  750 
20   782  243 
21   208  541 
22   536  771 
23   751  297 
24   774  784 
25   910  875 
26   848  710 
27   886  119 
28   778  871 
29   25   435 
30   529  440 
31   23   443 
32   191  587 
33   19   442 
34   272  516 
35   198  510 
36   781  64  
37   938  858 
38   191  879 
39   241  244 
40   954  0   
41   21   644 
42   88   459 
43   478  359 
44   616  355 
45   15   405 
46   335  585 
47   509  208 
48   871  693 
49   875  235 
50   515  1000
51   409  162 
52   402  381 
53   887  143 
54   557  482 
55   991  100 
56   228  611 
57   250  976 
58   362  758 
59   140  899 
60   22   505 
61   897  781 
62   527  650 
63   477  750 
64   586  996 
65   910  164 
66   821  92  
67   580  302 
68   930  588 
69   689  592 
70   942  86  
71   228  618 
72   936  173 
73   889  794 
74   862  68  
75   842  822 
76   246  511 
77   841  283 
78   576  295 
79   527  476 
80   716  445 
81   520  793 
82   404  985 
83   239  441 
84   451  170 
85   824  261 
86   20   619 
87   523  509 
88   579  560 
89   495  558 
90   971  166 
91   381  209 
92   269  972 
93   839  90  
94   755  39  
95   407  630 
96   946  273 
97   161  591 
98   175  50  
99   847  613 
100  825  182 
101  576  183 
DEMAND_SECTION
1    0   
2    1   
3    1   
4    1   
5    1   
6    1   
7    1   
8    1   
9    1   
10   1   
11   1   
12   1   
13   1   
14   1   
15   1   
16   1   
17   1   
18   1   
19   1   
20   1   
21   1   
22   1   
23   1   
24   1   
25   1   
26   1   
27   1   
28   1   
29   1   
30   1   
31   1   
32   1   
33   1   
34   1   
35   1   
36   1   
37   1   
38   1   
39   1   
40   1   
41   1   
42   1   
43   1   
44   1   
45   1   
46   1   
47   1   
48   1   
49   1   
50   1   
51   1   
52   1   
53   1   
54   1   
55   1   
56   1   
57   1   
58   1   
59   1   
60   1   
61   1   
62   1   
63   1   
64   1   
65   1   
66   1   
67   1   
68   1   
69   1   
70   1   
71   1   
72   1   
73   1   
74   1   
75   1   
76   1   
77   1   
78   1   
79   1   
80   1   
81   1   
82   1   
83   1   
84   1   
85   1   
86   1   
87   1   
88   1   
89   1   
90   1   
91   1   
92   1   
93   1   
94   1   
95   1   
96   1   
97   1   
98   1   
99   1   
100  1   
101  1   
DEPOT_SECTION
1
-1
EOF
