data/CVRPLIB/Vrp-Set-XML100/solutions/XML100_2314_17.sol
Route #1: 29 43 66 77 100 46 83 50 90 97 38 51 42
Route #2: 82 41 14 44 28 30 32 59 85 40 96 31 45
Route #3: 57 37 10 58 56 91 81 49 63 12 80 62 88
Route #4: 5 23 74 72 60 36 24 13 8 27 21 3 61
Route #5: 94 9 70 55 20 34 75 7 33
Route #6: 15 16 93 35 2 73 39 69 54 89 71 95 76
Route #7: 22 84 48 64 52 26 17 92 65 99 11 19 6
Route #8: 86 87 68 25 4 18 47 67 98 79 1 53 78
Cost 10678
